\ U_3 U_4 U_5 U_6 U_7 U_8

Minimize
 obj: 15 U_3 + 15 U_4 + 15 U_5 + 15 U_6 + 15 U_7 + 15 U_8 +
      .75 P_3 +
      .75 P_4 +
      .75 P_5 +
      .75 P_6 +
      .75 P_7 +
      .75 P_8 - 31500
      \ 25 .11 P_3 - 25 .11 5000

Subject To
 c1: U_3                     - P_3 = -6950
 c2: U_4 + .89 U_3           - P_4 = -6471.7
 c3: U_5 + .89 U_4 + .53 U_3 - P_5 = -6500
 c4: U_6 + .89 U_5 + .53 U_4 - P_6 = -7000
 c5: U_7 + .89 U_6 + .53 U_5 - P_7 = -8000
 c6: U_8 + .89 U_7 + .53 U_6 - P_8 = -9500
 \
 c7: P_3 >= 5000
 c8: P_4 >= 6000
 c9: P_5 >= 6500
 c10: P_6 >= 7000
 c11: P_7 >= 8000
 c12: P_8 >= 9500
 \
 c13: U_3 <= 6000
 c14: U_4 <= 6000
 c15: U_5 <= 6000
 c16: U_6 <= 6000
 c17: U_7 <= 6000
 c18: U_8 <= 6000
End